p cnf 323 1704
-246 -247 0
-1 -2 0
-3 -4 0
-3 -5 0
-4 -5 0
-246 1 2 0
-247 2 3 4 5 0
246 -1 0
246 -2 0
247 -3 0
247 -4 0
247 -5 0
-1 36 0
-1 6 0
-2 37 0
-2 7 0
-3 38 0
-3 8 0
-4 39 0
-4 9 0
-5 40 0
-5 10 0
-248 -249 0
-6 -7 0
-8 -9 0
-8 -10 0
-9 -10 0
-248 6 7 0
-249 7 8 9 10 0
248 -6 0
248 -7 0
249 -8 0
249 -9 0
249 -10 0
-6 1 11 0
-6 1 41 0
-6 11 41 0
-7 2 12 0
-7 2 42 0
-7 12 42 0
-8 3 13 0
-8 3 43 0
-8 13 43 0
-9 4 14 0
-9 4 44 0
-9 14 44 0
-10 5 15 0
-10 5 45 0
-10 15 45 0
-6 -1 -11 -41 0
-7 -2 -12 -42 0
-8 -3 -13 -43 0
-9 -4 -14 -44 0
-10 -5 -15 -45 0
-250 -251 0
-11 -12 0
-13 -14 0
-13 -15 0
-14 -15 0
-250 11 12 0
-251 12 13 14 15 0
250 -11 0
250 -12 0
251 -13 0
251 -14 0
251 -15 0
-11 6 16 0
-11 6 46 0
-11 16 46 0
-12 7 17 0
-12 7 47 0
-12 17 47 0
-13 8 18 0
-13 8 48 0
-13 18 48 0
-14 9 19 0
-14 9 49 0
-14 19 49 0
-15 10 20 0
-15 10 50 0
-15 20 50 0
-11 -6 -16 -46 0
-12 -7 -17 -47 0
-13 -8 -18 -48 0
-14 -9 -19 -49 0
-15 -10 -20 -50 0
-252 -253 0
-16 -17 0
-18 -19 0
-18 -20 0
-19 -20 0
-252 16 17 0
-253 17 18 19 20 0
252 -16 0
252 -17 0
253 -18 0
253 -19 0
253 -20 0
-16 11 21 0
-16 11 51 0
-16 21 51 0
-17 12 22 0
-17 12 52 0
-17 22 52 0
-18 13 23 0
-18 13 53 0
-18 23 53 0
-19 14 24 0
-19 14 54 0
-19 24 54 0
-20 15 25 0
-20 15 55 0
-20 25 55 0
-16 -11 -21 -51 0
-17 -12 -22 -52 0
-18 -13 -23 -53 0
-19 -14 -24 -54 0
-20 -15 -25 -55 0
-22 0
-23 0
-24 0
-25 0
21 0
16 26 56 0
-16 -26 0
-16 -56 0
-26 -56 0
-26 0
-27 0
-28 0
-29 0
30 0
25 35 65 0
-25 -35 0
-25 -65 0
-35 -65 0
-254 -255 0
-31 -32 0
-33 -34 0
-33 -35 0
-34 -35 0
-254 31 32 0
-255 32 33 34 35 0
254 -31 0
254 -32 0
255 -33 0
255 -34 0
255 -35 0
-31 66 0
-31 26 0
-32 67 0
-32 27 0
-33 68 0
-33 28 0
-34 69 0
-34 29 0
-35 70 0
-35 30 0
-256 -257 0
-36 -37 0
-38 -39 0
-38 -40 0
-39 -40 0
-256 36 37 0
-257 37 38 39 40 0
256 -36 0
256 -37 0
257 -38 0
257 -39 0
257 -40 0
-36 71 41 0
-36 71 1 0
-36 41 1 0
-37 72 42 0
-37 72 2 0
-37 42 2 0
-38 73 43 0
-38 73 3 0
-38 43 3 0
-39 74 44 0
-39 74 4 0
-39 44 4 0
-40 75 45 0
-40 75 5 0
-40 45 5 0
-36 -71 -41 -1 0
-37 -72 -42 -2 0
-38 -73 -43 -3 0
-39 -74 -44 -4 0
-40 -75 -45 -5 0
-258 -259 0
-41 -42 0
-43 -44 0
-43 -45 0
-44 -45 0
-258 41 42 0
-259 42 43 44 45 0
258 -41 0
258 -42 0
259 -43 0
259 -44 0
259 -45 0
-41 76 46 6 0
-41 76 46 36 0
-41 76 6 36 0
-41 46 6 36 0
-42 77 47 7 0
-42 77 47 37 0
-42 77 7 37 0
-42 47 7 37 0
-43 78 48 8 0
-43 78 48 38 0
-43 78 8 38 0
-43 48 8 38 0
-44 79 49 9 0
-44 79 49 39 0
-44 79 9 39 0
-44 49 9 39 0
-45 80 50 10 0
-45 80 50 40 0
-45 80 10 40 0
-45 50 10 40 0
-41 -76 -46 -6 0
-41 -76 -46 -36 0
-41 -76 -6 -36 0
-41 -46 -6 -36 0
-42 -77 -47 -7 0
-42 -77 -47 -37 0
-42 -77 -7 -37 0
-42 -47 -7 -37 0
-43 -78 -48 -8 0
-43 -78 -48 -38 0
-43 -78 -8 -38 0
-43 -48 -8 -38 0
-44 -79 -49 -9 0
-44 -79 -49 -39 0
-44 -79 -9 -39 0
-44 -49 -9 -39 0
-45 -80 -50 -10 0
-45 -80 -50 -40 0
-45 -80 -10 -40 0
-45 -50 -10 -40 0
-260 -261 0
-46 -47 0
-48 -49 0
-48 -50 0
-49 -50 0
-260 46 47 0
-261 47 48 49 50 0
260 -46 0
260 -47 0
261 -48 0
261 -49 0
261 -50 0
-46 81 51 11 0
-46 81 51 41 0
-46 81 11 41 0
-46 51 11 41 0
-47 82 52 12 0
-47 82 52 42 0
-47 82 12 42 0
-47 52 12 42 0
-48 83 53 13 0
-48 83 53 43 0
-48 83 13 43 0
-48 53 13 43 0
-49 84 54 14 0
-49 84 54 44 0
-49 84 14 44 0
-49 54 14 44 0
-50 85 55 15 0
-50 85 55 45 0
-50 85 15 45 0
-50 55 15 45 0
-46 -81 -51 -11 0
-46 -81 -51 -41 0
-46 -81 -11 -41 0
-46 -51 -11 -41 0
-47 -82 -52 -12 0
-47 -82 -52 -42 0
-47 -82 -12 -42 0
-47 -52 -12 -42 0
-48 -83 -53 -13 0
-48 -83 -53 -43 0
-48 -83 -13 -43 0
-48 -53 -13 -43 0
-49 -84 -54 -14 0
-49 -84 -54 -44 0
-49 -84 -14 -44 0
-49 -54 -14 -44 0
-50 -85 -55 -15 0
-50 -85 -55 -45 0
-50 -85 -15 -45 0
-50 -55 -15 -45 0
-262 -263 0
-51 -52 0
-53 -54 0
-53 -55 0
-54 -55 0
-262 51 52 0
-263 52 53 54 55 0
262 -51 0
262 -52 0
263 -53 0
263 -54 0
263 -55 0
-51 86 56 16 0
-51 86 56 46 0
-51 86 16 46 0
-51 56 16 46 0
-52 87 57 17 0
-52 87 57 47 0
-52 87 17 47 0
-52 57 17 47 0
-53 88 58 18 0
-53 88 58 48 0
-53 88 18 48 0
-53 58 18 48 0
-54 89 59 19 0
-54 89 59 49 0
-54 89 19 49 0
-54 59 19 49 0
-55 90 60 20 0
-55 90 60 50 0
-55 90 20 50 0
-55 60 20 50 0
-51 -86 -56 -16 0
-51 -86 -56 -46 0
-51 -86 -16 -46 0
-51 -56 -16 -46 0
-52 -87 -57 -17 0
-52 -87 -57 -47 0
-52 -87 -17 -47 0
-52 -57 -17 -47 0
-53 -88 -58 -18 0
-53 -88 -58 -48 0
-53 -88 -18 -48 0
-53 -58 -18 -48 0
-54 -89 -59 -19 0
-54 -89 -59 -49 0
-54 -89 -19 -49 0
-54 -59 -19 -49 0
-55 -90 -60 -20 0
-55 -90 -60 -50 0
-55 -90 -20 -50 0
-55 -60 -20 -50 0
-56 0
-57 0
-59 0
-60 0
58 0
93 63 23 53 0
-93 -63 0
-93 -23 0
-93 -53 0
-63 -23 0
-63 -53 0
-23 -53 0
-61 0
-62 0
-63 0
-65 0
64 0
99 69 29 59 0
-99 -69 0
-99 -29 0
-99 -59 0
-69 -29 0
-69 -59 0
-29 -59 0
-264 -265 0
-66 -67 0
-68 -69 0
-68 -70 0
-69 -70 0
-264 66 67 0
-265 67 68 69 70 0
264 -66 0
264 -67 0
265 -68 0
265 -69 0
265 -70 0
-66 101 61 0
-66 101 31 0
-66 61 31 0
-67 102 62 0
-67 102 32 0
-67 62 32 0
-68 103 63 0
-68 103 33 0
-68 63 33 0
-69 104 64 0
-69 104 34 0
-69 64 34 0
-70 105 65 0
-70 105 35 0
-70 65 35 0
-66 -101 -61 -31 0
-67 -102 -62 -32 0
-68 -103 -63 -33 0
-69 -104 -64 -34 0
-70 -105 -65 -35 0
-266 -267 0
-71 -72 0
-73 -74 0
-73 -75 0
-74 -75 0
-266 71 72 0
-267 72 73 74 75 0
266 -71 0
266 -72 0
267 -73 0
267 -74 0
267 -75 0
-71 106 76 0
-71 106 36 0
-71 76 36 0
-72 107 77 0
-72 107 37 0
-72 77 37 0
-73 108 78 0
-73 108 38 0
-73 78 38 0
-74 109 79 0
-74 109 39 0
-74 79 39 0
-75 110 80 0
-75 110 40 0
-75 80 40 0
-71 -106 -76 -36 0
-72 -107 -77 -37 0
-73 -108 -78 -38 0
-74 -109 -79 -39 0
-75 -110 -80 -40 0
-268 -269 0
-76 -77 0
-78 -79 0
-78 -80 0
-79 -80 0
-268 76 77 0
-269 77 78 79 80 0
268 -76 0
268 -77 0
269 -78 0
269 -79 0
269 -80 0
-76 111 81 41 0
-76 111 81 71 0
-76 111 41 71 0
-76 81 41 71 0
-77 112 82 42 0
-77 112 82 72 0
-77 112 42 72 0
-77 82 42 72 0
-78 113 83 43 0
-78 113 83 73 0
-78 113 43 73 0
-78 83 43 73 0
-79 114 84 44 0
-79 114 84 74 0
-79 114 44 74 0
-79 84 44 74 0
-80 115 85 45 0
-80 115 85 75 0
-80 115 45 75 0
-80 85 45 75 0
-76 -111 -81 -41 0
-76 -111 -81 -71 0
-76 -111 -41 -71 0
-76 -81 -41 -71 0
-77 -112 -82 -42 0
-77 -112 -82 -72 0
-77 -112 -42 -72 0
-77 -82 -42 -72 0
-78 -113 -83 -43 0
-78 -113 -83 -73 0
-78 -113 -43 -73 0
-78 -83 -43 -73 0
-79 -114 -84 -44 0
-79 -114 -84 -74 0
-79 -114 -44 -74 0
-79 -84 -44 -74 0
-80 -115 -85 -45 0
-80 -115 -85 -75 0
-80 -115 -45 -75 0
-80 -85 -45 -75 0
-81 0
-82 0
-83 0
-85 0
84 0
119 89 49 79 0
-119 -89 0
-119 -49 0
-119 -79 0
-89 -49 0
-89 -79 0
-49 -79 0
-270 -271 0
-86 -87 0
-88 -89 0
-88 -90 0
-89 -90 0
-270 86 87 0
-271 87 88 89 90 0
270 -86 0
270 -87 0
271 -88 0
271 -89 0
271 -90 0
-86 121 91 51 0
-86 121 91 81 0
-86 121 51 81 0
-86 91 51 81 0
-87 122 92 52 0
-87 122 92 82 0
-87 122 52 82 0
-87 92 52 82 0
-88 123 93 53 0
-88 123 93 83 0
-88 123 53 83 0
-88 93 53 83 0
-89 124 94 54 0
-89 124 94 84 0
-89 124 54 84 0
-89 94 54 84 0
-90 125 95 55 0
-90 125 95 85 0
-90 125 55 85 0
-90 95 55 85 0
-86 -121 -91 -51 0
-86 -121 -91 -81 0
-86 -121 -51 -81 0
-86 -91 -51 -81 0
-87 -122 -92 -52 0
-87 -122 -92 -82 0
-87 -122 -52 -82 0
-87 -92 -52 -82 0
-88 -123 -93 -53 0
-88 -123 -93 -83 0
-88 -123 -53 -83 0
-88 -93 -53 -83 0
-89 -124 -94 -54 0
-89 -124 -94 -84 0
-89 -124 -54 -84 0
-89 -94 -54 -84 0
-90 -125 -95 -55 0
-90 -125 -95 -85 0
-90 -125 -55 -85 0
-90 -95 -55 -85 0
-272 -273 0
-91 -92 0
-93 -94 0
-93 -95 0
-94 -95 0
-272 91 92 0
-273 92 93 94 95 0
272 -91 0
272 -92 0
273 -93 0
273 -94 0
273 -95 0
-91 126 96 56 0
-91 126 96 86 0
-91 126 56 86 0
-91 96 56 86 0
-92 127 97 57 0
-92 127 97 87 0
-92 127 57 87 0
-92 97 57 87 0
-93 128 98 58 0
-93 128 98 88 0
-93 128 58 88 0
-93 98 58 88 0
-94 129 99 59 0
-94 129 99 89 0
-94 129 59 89 0
-94 99 59 89 0
-95 130 100 60 0
-95 130 100 90 0
-95 130 60 90 0
-95 100 60 90 0
-91 -126 -96 -56 0
-91 -126 -96 -86 0
-91 -126 -56 -86 0
-91 -96 -56 -86 0
-92 -127 -97 -57 0
-92 -127 -97 -87 0
-92 -127 -57 -87 0
-92 -97 -57 -87 0
-93 -128 -98 -58 0
-93 -128 -98 -88 0
-93 -128 -58 -88 0
-93 -98 -58 -88 0
-94 -129 -99 -59 0
-94 -129 -99 -89 0
-94 -129 -59 -89 0
-94 -99 -59 -89 0
-95 -130 -100 -60 0
-95 -130 -100 -90 0
-95 -130 -60 -90 0
-95 -100 -60 -90 0
-274 -275 0
-96 -97 0
-98 -99 0
-98 -100 0
-99 -100 0
-274 96 97 0
-275 97 98 99 100 0
274 -96 0
274 -97 0
275 -98 0
275 -99 0
275 -100 0
-96 131 101 61 0
-96 131 101 91 0
-96 131 61 91 0
-96 101 61 91 0
-97 132 102 62 0
-97 132 102 92 0
-97 132 62 92 0
-97 102 62 92 0
-98 133 103 63 0
-98 133 103 93 0
-98 133 63 93 0
-98 103 63 93 0
-99 134 104 64 0
-99 134 104 94 0
-99 134 64 94 0
-99 104 64 94 0
-100 135 105 65 0
-100 135 105 95 0
-100 135 65 95 0
-100 105 65 95 0
-96 -131 -101 -61 0
-96 -131 -101 -91 0
-96 -131 -61 -91 0
-96 -101 -61 -91 0
-97 -132 -102 -62 0
-97 -132 -102 -92 0
-97 -132 -62 -92 0
-97 -102 -62 -92 0
-98 -133 -103 -63 0
-98 -133 -103 -93 0
-98 -133 -63 -93 0
-98 -103 -63 -93 0
-99 -134 -104 -64 0
-99 -134 -104 -94 0
-99 -134 -64 -94 0
-99 -104 -64 -94 0
-100 -135 -105 -65 0
-100 -135 -105 -95 0
-100 -135 -65 -95 0
-100 -105 -65 -95 0
-276 -277 0
-101 -102 0
-103 -104 0
-103 -105 0
-104 -105 0
-276 101 102 0
-277 102 103 104 105 0
276 -101 0
276 -102 0
277 -103 0
277 -104 0
277 -105 0
-101 136 96 0
-101 136 66 0
-101 96 66 0
-102 137 97 0
-102 137 67 0
-102 97 67 0
-103 138 98 0
-103 138 68 0
-103 98 68 0
-104 139 99 0
-104 139 69 0
-104 99 69 0
-105 140 100 0
-105 140 70 0
-105 100 70 0
-101 -136 -96 -66 0
-102 -137 -97 -67 0
-103 -138 -98 -68 0
-104 -139 -99 -69 0
-105 -140 -100 -70 0
-278 -279 0
-106 -107 0
-108 -109 0
-108 -110 0
-109 -110 0
-278 106 107 0
-279 107 108 109 110 0
278 -106 0
278 -107 0
279 -108 0
279 -109 0
279 -110 0
-106 141 111 0
-106 141 71 0
-106 111 71 0
-107 142 112 0
-107 142 72 0
-107 112 72 0
-108 143 113 0
-108 143 73 0
-108 113 73 0
-109 144 114 0
-109 144 74 0
-109 114 74 0
-110 145 115 0
-110 145 75 0
-110 115 75 0
-106 -141 -111 -71 0
-107 -142 -112 -72 0
-108 -143 -113 -73 0
-109 -144 -114 -74 0
-110 -145 -115 -75 0
-280 -281 0
-111 -112 0
-113 -114 0
-113 -115 0
-114 -115 0
-280 111 112 0
-281 112 113 114 115 0
280 -111 0
280 -112 0
281 -113 0
281 -114 0
281 -115 0
-111 146 116 76 0
-111 146 116 106 0
-111 146 76 106 0
-111 116 76 106 0
-112 147 117 77 0
-112 147 117 107 0
-112 147 77 107 0
-112 117 77 107 0
-113 148 118 78 0
-113 148 118 108 0
-113 148 78 108 0
-113 118 78 108 0
-114 149 119 79 0
-114 149 119 109 0
-114 149 79 109 0
-114 119 79 109 0
-115 150 120 80 0
-115 150 120 110 0
-115 150 80 110 0
-115 120 80 110 0
-111 -146 -116 -76 0
-111 -146 -116 -106 0
-111 -146 -76 -106 0
-111 -116 -76 -106 0
-112 -147 -117 -77 0
-112 -147 -117 -107 0
-112 -147 -77 -107 0
-112 -117 -77 -107 0
-113 -148 -118 -78 0
-113 -148 -118 -108 0
-113 -148 -78 -108 0
-113 -118 -78 -108 0
-114 -149 -119 -79 0
-114 -149 -119 -109 0
-114 -149 -79 -109 0
-114 -119 -79 -109 0
-115 -150 -120 -80 0
-115 -150 -120 -110 0
-115 -150 -80 -110 0
-115 -120 -80 -110 0
-282 -283 0
-116 -117 0
-118 -119 0
-118 -120 0
-119 -120 0
-282 116 117 0
-283 117 118 119 120 0
282 -116 0
282 -117 0
283 -118 0
283 -119 0
283 -120 0
-116 151 121 81 0
-116 151 121 111 0
-116 151 81 111 0
-116 121 81 111 0
-117 152 122 82 0
-117 152 122 112 0
-117 152 82 112 0
-117 122 82 112 0
-118 153 123 83 0
-118 153 123 113 0
-118 153 83 113 0
-118 123 83 113 0
-119 154 124 84 0
-119 154 124 114 0
-119 154 84 114 0
-119 124 84 114 0
-120 155 125 85 0
-120 155 125 115 0
-120 155 85 115 0
-120 125 85 115 0
-116 -151 -121 -81 0
-116 -151 -121 -111 0
-116 -151 -81 -111 0
-116 -121 -81 -111 0
-117 -152 -122 -82 0
-117 -152 -122 -112 0
-117 -152 -82 -112 0
-117 -122 -82 -112 0
-118 -153 -123 -83 0
-118 -153 -123 -113 0
-118 -153 -83 -113 0
-118 -123 -83 -113 0
-119 -154 -124 -84 0
-119 -154 -124 -114 0
-119 -154 -84 -114 0
-119 -124 -84 -114 0
-120 -155 -125 -85 0
-120 -155 -125 -115 0
-120 -155 -85 -115 0
-120 -125 -85 -115 0
-284 -285 0
-121 -122 0
-123 -124 0
-123 -125 0
-124 -125 0
-284 121 122 0
-285 122 123 124 125 0
284 -121 0
284 -122 0
285 -123 0
285 -124 0
285 -125 0
-121 156 126 86 0
-121 156 126 116 0
-121 156 86 116 0
-121 126 86 116 0
-122 157 127 87 0
-122 157 127 117 0
-122 157 87 117 0
-122 127 87 117 0
-123 158 128 88 0
-123 158 128 118 0
-123 158 88 118 0
-123 128 88 118 0
-124 159 129 89 0
-124 159 129 119 0
-124 159 89 119 0
-124 129 89 119 0
-125 160 130 90 0
-125 160 130 120 0
-125 160 90 120 0
-125 130 90 120 0
-121 -156 -126 -86 0
-121 -156 -126 -116 0
-121 -156 -86 -116 0
-121 -126 -86 -116 0
-122 -157 -127 -87 0
-122 -157 -127 -117 0
-122 -157 -87 -117 0
-122 -127 -87 -117 0
-123 -158 -128 -88 0
-123 -158 -128 -118 0
-123 -158 -88 -118 0
-123 -128 -88 -118 0
-124 -159 -129 -89 0
-124 -159 -129 -119 0
-124 -159 -89 -119 0
-124 -129 -89 -119 0
-125 -160 -130 -90 0
-125 -160 -130 -120 0
-125 -160 -90 -120 0
-125 -130 -90 -120 0
-286 -287 0
-126 -127 0
-128 -129 0
-128 -130 0
-129 -130 0
-286 126 127 0
-287 127 128 129 130 0
286 -126 0
286 -127 0
287 -128 0
287 -129 0
287 -130 0
-126 161 131 91 0
-126 161 131 121 0
-126 161 91 121 0
-126 131 91 121 0
-127 162 132 92 0
-127 162 132 122 0
-127 162 92 122 0
-127 132 92 122 0
-128 163 133 93 0
-128 163 133 123 0
-128 163 93 123 0
-128 133 93 123 0
-129 164 134 94 0
-129 164 134 124 0
-129 164 94 124 0
-129 134 94 124 0
-130 165 135 95 0
-130 165 135 125 0
-130 165 95 125 0
-130 135 95 125 0
-126 -161 -131 -91 0
-126 -161 -131 -121 0
-126 -161 -91 -121 0
-126 -131 -91 -121 0
-127 -162 -132 -92 0
-127 -162 -132 -122 0
-127 -162 -92 -122 0
-127 -132 -92 -122 0
-128 -163 -133 -93 0
-128 -163 -133 -123 0
-128 -163 -93 -123 0
-128 -133 -93 -123 0
-129 -164 -134 -94 0
-129 -164 -134 -124 0
-129 -164 -94 -124 0
-129 -134 -94 -124 0
-130 -165 -135 -95 0
-130 -165 -135 -125 0
-130 -165 -95 -125 0
-130 -135 -95 -125 0
-288 -289 0
-131 -132 0
-133 -134 0
-133 -135 0
-134 -135 0
-288 131 132 0
-289 132 133 134 135 0
288 -131 0
288 -132 0
289 -133 0
289 -134 0
289 -135 0
-131 166 136 96 0
-131 166 136 126 0
-131 166 96 126 0
-131 136 96 126 0
-132 167 137 97 0
-132 167 137 127 0
-132 167 97 127 0
-132 137 97 127 0
-133 168 138 98 0
-133 168 138 128 0
-133 168 98 128 0
-133 138 98 128 0
-134 169 139 99 0
-134 169 139 129 0
-134 169 99 129 0
-134 139 99 129 0
-135 170 140 100 0
-135 170 140 130 0
-135 170 100 130 0
-135 140 100 130 0
-131 -166 -136 -96 0
-131 -166 -136 -126 0
-131 -166 -96 -126 0
-131 -136 -96 -126 0
-132 -167 -137 -97 0
-132 -167 -137 -127 0
-132 -167 -97 -127 0
-132 -137 -97 -127 0
-133 -168 -138 -98 0
-133 -168 -138 -128 0
-133 -168 -98 -128 0
-133 -138 -98 -128 0
-134 -169 -139 -99 0
-134 -169 -139 -129 0
-134 -169 -99 -129 0
-134 -139 -99 -129 0
-135 -170 -140 -100 0
-135 -170 -140 -130 0
-135 -170 -100 -130 0
-135 -140 -100 -130 0
-290 -291 0
-136 -137 0
-138 -139 0
-138 -140 0
-139 -140 0
-290 136 137 0
-291 137 138 139 140 0
290 -136 0
290 -137 0
291 -138 0
291 -139 0
291 -140 0
-136 171 131 0
-136 171 101 0
-136 131 101 0
-137 172 132 0
-137 172 102 0
-137 132 102 0
-138 173 133 0
-138 173 103 0
-138 133 103 0
-139 174 134 0
-139 174 104 0
-139 134 104 0
-140 175 135 0
-140 175 105 0
-140 135 105 0
-136 -171 -131 -101 0
-137 -172 -132 -102 0
-138 -173 -133 -103 0
-139 -174 -134 -104 0
-140 -175 -135 -105 0
-292 -293 0
-141 -142 0
-143 -144 0
-143 -145 0
-144 -145 0
-292 141 142 0
-293 142 143 144 145 0
292 -141 0
292 -142 0
293 -143 0
293 -144 0
293 -145 0
-141 176 146 0
-141 176 106 0
-141 146 106 0
-142 177 147 0
-142 177 107 0
-142 147 107 0
-143 178 148 0
-143 178 108 0
-143 148 108 0
-144 179 149 0
-144 179 109 0
-144 149 109 0
-145 180 150 0
-145 180 110 0
-145 150 110 0
-141 -176 -146 -106 0
-142 -177 -147 -107 0
-143 -178 -148 -108 0
-144 -179 -149 -109 0
-145 -180 -150 -110 0
-294 -295 0
-146 -147 0
-148 -149 0
-148 -150 0
-149 -150 0
-294 146 147 0
-295 147 148 149 150 0
294 -146 0
294 -147 0
295 -148 0
295 -149 0
295 -150 0
-146 181 151 111 0
-146 181 151 141 0
-146 181 111 141 0
-146 151 111 141 0
-147 182 152 112 0
-147 182 152 142 0
-147 182 112 142 0
-147 152 112 142 0
-148 183 153 113 0
-148 183 153 143 0
-148 183 113 143 0
-148 153 113 143 0
-149 184 154 114 0
-149 184 154 144 0
-149 184 114 144 0
-149 154 114 144 0
-150 185 155 115 0
-150 185 155 145 0
-150 185 115 145 0
-150 155 115 145 0
-146 -181 -151 -111 0
-146 -181 -151 -141 0
-146 -181 -111 -141 0
-146 -151 -111 -141 0
-147 -182 -152 -112 0
-147 -182 -152 -142 0
-147 -182 -112 -142 0
-147 -152 -112 -142 0
-148 -183 -153 -113 0
-148 -183 -153 -143 0
-148 -183 -113 -143 0
-148 -153 -113 -143 0
-149 -184 -154 -114 0
-149 -184 -154 -144 0
-149 -184 -114 -144 0
-149 -154 -114 -144 0
-150 -185 -155 -115 0
-150 -185 -155 -145 0
-150 -185 -115 -145 0
-150 -155 -115 -145 0
-151 0
-152 0
-154 0
-155 0
153 0
188 158 118 148 0
-188 -158 0
-188 -118 0
-188 -148 0
-158 -118 0
-158 -148 0
-118 -148 0
-156 0
-158 0
-159 0
-160 0
157 0
192 162 122 152 0
-192 -162 0
-192 -122 0
-192 -152 0
-162 -122 0
-162 -152 0
-122 -152 0
-162 0
-163 0
-164 0
-165 0
161 0
196 166 126 156 0
-196 -166 0
-196 -126 0
-196 -156 0
-166 -126 0
-166 -156 0
-126 -156 0
-296 -297 0
-166 -167 0
-168 -169 0
-168 -170 0
-169 -170 0
-296 166 167 0
-297 167 168 169 170 0
296 -166 0
296 -167 0
297 -168 0
297 -169 0
297 -170 0
-166 201 171 131 0
-166 201 171 161 0
-166 201 131 161 0
-166 171 131 161 0
-167 202 172 132 0
-167 202 172 162 0
-167 202 132 162 0
-167 172 132 162 0
-168 203 173 133 0
-168 203 173 163 0
-168 203 133 163 0
-168 173 133 163 0
-169 204 174 134 0
-169 204 174 164 0
-169 204 134 164 0
-169 174 134 164 0
-170 205 175 135 0
-170 205 175 165 0
-170 205 135 165 0
-170 175 135 165 0
-166 -201 -171 -131 0
-166 -201 -171 -161 0
-166 -201 -131 -161 0
-166 -171 -131 -161 0
-167 -202 -172 -132 0
-167 -202 -172 -162 0
-167 -202 -132 -162 0
-167 -172 -132 -162 0
-168 -203 -173 -133 0
-168 -203 -173 -163 0
-168 -203 -133 -163 0
-168 -173 -133 -163 0
-169 -204 -174 -134 0
-169 -204 -174 -164 0
-169 -204 -134 -164 0
-169 -174 -134 -164 0
-170 -205 -175 -135 0
-170 -205 -175 -165 0
-170 -205 -135 -165 0
-170 -175 -135 -165 0
-298 -299 0
-171 -172 0
-173 -174 0
-173 -175 0
-174 -175 0
-298 171 172 0
-299 172 173 174 175 0
298 -171 0
298 -172 0
299 -173 0
299 -174 0
299 -175 0
-171 206 166 0
-171 206 136 0
-171 166 136 0
-172 207 167 0
-172 207 137 0
-172 167 137 0
-173 208 168 0
-173 208 138 0
-173 168 138 0
-174 209 169 0
-174 209 139 0
-174 169 139 0
-175 210 170 0
-175 210 140 0
-175 170 140 0
-171 -206 -166 -136 0
-172 -207 -167 -137 0
-173 -208 -168 -138 0
-174 -209 -169 -139 0
-175 -210 -170 -140 0
-176 0
-178 0
-179 0
-180 0
177 0
212 182 142 0
-212 -182 0
-212 -142 0
-182 -142 0
-300 -301 0
-181 -182 0
-183 -184 0
-183 -185 0
-184 -185 0
-300 181 182 0
-301 182 183 184 185 0
300 -181 0
300 -182 0
301 -183 0
301 -184 0
301 -185 0
-181 216 186 146 0
-181 216 186 176 0
-181 216 146 176 0
-181 186 146 176 0
-182 217 187 147 0
-182 217 187 177 0
-182 217 147 177 0
-182 187 147 177 0
-183 218 188 148 0
-183 218 188 178 0
-183 218 148 178 0
-183 188 148 178 0
-184 219 189 149 0
-184 219 189 179 0
-184 219 149 179 0
-184 189 149 179 0
-185 220 190 150 0
-185 220 190 180 0
-185 220 150 180 0
-185 190 150 180 0
-181 -216 -186 -146 0
-181 -216 -186 -176 0
-181 -216 -146 -176 0
-181 -186 -146 -176 0
-182 -217 -187 -147 0
-182 -217 -187 -177 0
-182 -217 -147 -177 0
-182 -187 -147 -177 0
-183 -218 -188 -148 0
-183 -218 -188 -178 0
-183 -218 -148 -178 0
-183 -188 -148 -178 0
-184 -219 -189 -149 0
-184 -219 -189 -179 0
-184 -219 -149 -179 0
-184 -189 -149 -179 0
-185 -220 -190 -150 0
-185 -220 -190 -180 0
-185 -220 -150 -180 0
-185 -190 -150 -180 0
-302 -303 0
-186 -187 0
-188 -189 0
-188 -190 0
-189 -190 0
-302 186 187 0
-303 187 188 189 190 0
302 -186 0
302 -187 0
303 -188 0
303 -189 0
303 -190 0
-186 221 191 151 0
-186 221 191 181 0
-186 221 151 181 0
-186 191 151 181 0
-187 222 192 152 0
-187 222 192 182 0
-187 222 152 182 0
-187 192 152 182 0
-188 223 193 153 0
-188 223 193 183 0
-188 223 153 183 0
-188 193 153 183 0
-189 224 194 154 0
-189 224 194 184 0
-189 224 154 184 0
-189 194 154 184 0
-190 225 195 155 0
-190 225 195 185 0
-190 225 155 185 0
-190 195 155 185 0
-186 -221 -191 -151 0
-186 -221 -191 -181 0
-186 -221 -151 -181 0
-186 -191 -151 -181 0
-187 -222 -192 -152 0
-187 -222 -192 -182 0
-187 -222 -152 -182 0
-187 -192 -152 -182 0
-188 -223 -193 -153 0
-188 -223 -193 -183 0
-188 -223 -153 -183 0
-188 -193 -153 -183 0
-189 -224 -194 -154 0
-189 -224 -194 -184 0
-189 -224 -154 -184 0
-189 -194 -154 -184 0
-190 -225 -195 -155 0
-190 -225 -195 -185 0
-190 -225 -155 -185 0
-190 -195 -155 -185 0
-304 -305 0
-191 -192 0
-193 -194 0
-193 -195 0
-194 -195 0
-304 191 192 0
-305 192 193 194 195 0
304 -191 0
304 -192 0
305 -193 0
305 -194 0
305 -195 0
-191 226 196 156 0
-191 226 196 186 0
-191 226 156 186 0
-191 196 156 186 0
-192 227 197 157 0
-192 227 197 187 0
-192 227 157 187 0
-192 197 157 187 0
-193 228 198 158 0
-193 228 198 188 0
-193 228 158 188 0
-193 198 158 188 0
-194 229 199 159 0
-194 229 199 189 0
-194 229 159 189 0
-194 199 159 189 0
-195 230 200 160 0
-195 230 200 190 0
-195 230 160 190 0
-195 200 160 190 0
-191 -226 -196 -156 0
-191 -226 -196 -186 0
-191 -226 -156 -186 0
-191 -196 -156 -186 0
-192 -227 -197 -157 0
-192 -227 -197 -187 0
-192 -227 -157 -187 0
-192 -197 -157 -187 0
-193 -228 -198 -158 0
-193 -228 -198 -188 0
-193 -228 -158 -188 0
-193 -198 -158 -188 0
-194 -229 -199 -159 0
-194 -229 -199 -189 0
-194 -229 -159 -189 0
-194 -199 -159 -189 0
-195 -230 -200 -160 0
-195 -230 -200 -190 0
-195 -230 -160 -190 0
-195 -200 -160 -190 0
-306 -307 0
-196 -197 0
-198 -199 0
-198 -200 0
-199 -200 0
-306 196 197 0
-307 197 198 199 200 0
306 -196 0
306 -197 0
307 -198 0
307 -199 0
307 -200 0
-196 231 201 161 0
-196 231 201 191 0
-196 231 161 191 0
-196 201 161 191 0
-197 232 202 162 0
-197 232 202 192 0
-197 232 162 192 0
-197 202 162 192 0
-198 233 203 163 0
-198 233 203 193 0
-198 233 163 193 0
-198 203 163 193 0
-199 234 204 164 0
-199 234 204 194 0
-199 234 164 194 0
-199 204 164 194 0
-200 235 205 165 0
-200 235 205 195 0
-200 235 165 195 0
-200 205 165 195 0
-196 -231 -201 -161 0
-196 -231 -201 -191 0
-196 -231 -161 -191 0
-196 -201 -161 -191 0
-197 -232 -202 -162 0
-197 -232 -202 -192 0
-197 -232 -162 -192 0
-197 -202 -162 -192 0
-198 -233 -203 -163 0
-198 -233 -203 -193 0
-198 -233 -163 -193 0
-198 -203 -163 -193 0
-199 -234 -204 -164 0
-199 -234 -204 -194 0
-199 -234 -164 -194 0
-199 -204 -164 -194 0
-200 -235 -205 -165 0
-200 -235 -205 -195 0
-200 -235 -165 -195 0
-200 -205 -165 -195 0
-308 -309 0
-201 -202 0
-203 -204 0
-203 -205 0
-204 -205 0
-308 201 202 0
-309 202 203 204 205 0
308 -201 0
308 -202 0
309 -203 0
309 -204 0
309 -205 0
-201 236 206 166 0
-201 236 206 196 0
-201 236 166 196 0
-201 206 166 196 0
-202 237 207 167 0
-202 237 207 197 0
-202 237 167 197 0
-202 207 167 197 0
-203 238 208 168 0
-203 238 208 198 0
-203 238 168 198 0
-203 208 168 198 0
-204 239 209 169 0
-204 239 209 199 0
-204 239 169 199 0
-204 209 169 199 0
-205 240 210 170 0
-205 240 210 200 0
-205 240 170 200 0
-205 210 170 200 0
-201 -236 -206 -166 0
-201 -236 -206 -196 0
-201 -236 -166 -196 0
-201 -206 -166 -196 0
-202 -237 -207 -167 0
-202 -237 -207 -197 0
-202 -237 -167 -197 0
-202 -207 -167 -197 0
-203 -238 -208 -168 0
-203 -238 -208 -198 0
-203 -238 -168 -198 0
-203 -208 -168 -198 0
-204 -239 -209 -169 0
-204 -239 -209 -199 0
-204 -239 -169 -199 0
-204 -209 -169 -199 0
-205 -240 -210 -170 0
-205 -240 -210 -200 0
-205 -240 -170 -200 0
-205 -210 -170 -200 0
-310 -311 0
-206 -207 0
-208 -209 0
-208 -210 0
-209 -210 0
-310 206 207 0
-311 207 208 209 210 0
310 -206 0
310 -207 0
311 -208 0
311 -209 0
311 -210 0
-206 241 201 0
-206 241 171 0
-206 201 171 0
-207 242 202 0
-207 242 172 0
-207 202 172 0
-208 243 203 0
-208 243 173 0
-208 203 173 0
-209 244 204 0
-209 244 174 0
-209 204 174 0
-210 245 205 0
-210 245 175 0
-210 205 175 0
-206 -241 -201 -171 0
-207 -242 -202 -172 0
-208 -243 -203 -173 0
-209 -244 -204 -174 0
-210 -245 -205 -175 0
-312 -313 0
-211 -212 0
-213 -214 0
-213 -215 0
-214 -215 0
-312 211 212 0
-313 212 213 214 215 0
312 -211 0
312 -212 0
313 -213 0
313 -214 0
313 -215 0
-211 176 0
-211 216 0
-212 177 0
-212 217 0
-213 178 0
-213 218 0
-214 179 0
-214 219 0
-215 180 0
-215 220 0
-314 -315 0
-216 -217 0
-218 -219 0
-218 -220 0
-219 -220 0
-314 216 217 0
-315 217 218 219 220 0
314 -216 0
314 -217 0
315 -218 0
315 -219 0
315 -220 0
-216 181 221 0
-216 181 211 0
-216 221 211 0
-217 182 222 0
-217 182 212 0
-217 222 212 0
-218 183 223 0
-218 183 213 0
-218 223 213 0
-219 184 224 0
-219 184 214 0
-219 224 214 0
-220 185 225 0
-220 185 215 0
-220 225 215 0
-216 -181 -221 -211 0
-217 -182 -222 -212 0
-218 -183 -223 -213 0
-219 -184 -224 -214 0
-220 -185 -225 -215 0
-316 -317 0
-221 -222 0
-223 -224 0
-223 -225 0
-224 -225 0
-316 221 222 0
-317 222 223 224 225 0
316 -221 0
316 -222 0
317 -223 0
317 -224 0
317 -225 0
-221 186 226 0
-221 186 216 0
-221 226 216 0
-222 187 227 0
-222 187 217 0
-222 227 217 0
-223 188 228 0
-223 188 218 0
-223 228 218 0
-224 189 229 0
-224 189 219 0
-224 229 219 0
-225 190 230 0
-225 190 220 0
-225 230 220 0
-221 -186 -226 -216 0
-222 -187 -227 -217 0
-223 -188 -228 -218 0
-224 -189 -229 -219 0
-225 -190 -230 -220 0
-318 -319 0
-226 -227 0
-228 -229 0
-228 -230 0
-229 -230 0
-318 226 227 0
-319 227 228 229 230 0
318 -226 0
318 -227 0
319 -228 0
319 -229 0
319 -230 0
-226 191 231 0
-226 191 221 0
-226 231 221 0
-227 192 232 0
-227 192 222 0
-227 232 222 0
-228 193 233 0
-228 193 223 0
-228 233 223 0
-229 194 234 0
-229 194 224 0
-229 234 224 0
-230 195 235 0
-230 195 225 0
-230 235 225 0
-226 -191 -231 -221 0
-227 -192 -232 -222 0
-228 -193 -233 -223 0
-229 -194 -234 -224 0
-230 -195 -235 -225 0
-320 -321 0
-231 -232 0
-233 -234 0
-233 -235 0
-234 -235 0
-320 231 232 0
-321 232 233 234 235 0
320 -231 0
320 -232 0
321 -233 0
321 -234 0
321 -235 0
-231 196 236 0
-231 196 226 0
-231 236 226 0
-232 197 237 0
-232 197 227 0
-232 237 227 0
-233 198 238 0
-233 198 228 0
-233 238 228 0
-234 199 239 0
-234 199 229 0
-234 239 229 0
-235 200 240 0
-235 200 230 0
-235 240 230 0
-231 -196 -236 -226 0
-232 -197 -237 -227 0
-233 -198 -238 -228 0
-234 -199 -239 -229 0
-235 -200 -240 -230 0
-322 -323 0
-236 -237 0
-238 -239 0
-238 -240 0
-239 -240 0
-322 236 237 0
-323 237 238 239 240 0
322 -236 0
322 -237 0
323 -238 0
323 -239 0
323 -240 0
-236 201 241 0
-236 201 231 0
-236 241 231 0
-237 202 242 0
-237 202 232 0
-237 242 232 0
-238 203 243 0
-238 203 233 0
-238 243 233 0
-239 204 244 0
-239 204 234 0
-239 244 234 0
-240 205 245 0
-240 205 235 0
-240 245 235 0
-236 -201 -241 -231 0
-237 -202 -242 -232 0
-238 -203 -243 -233 0
-239 -204 -244 -234 0
-240 -205 -245 -235 0
-241 0
-242 0
-243 0
-244 0
245 0
210 240 0
-210 -240 0